data/CVRPLIB/Vrp-Set-XML100/instances/XML100_2316_06.vrp
NAME : XML100_2316_06
COMMENT : Generated by Queiroga, Sadykov, Uchoa, and Vidal (2021)
TYPE : CVRP
DIMENSION : 101
EDGE_WEIGHT_TYPE : EUC_2D
CAPACITY : 28
NODE_COORD_SECTION
1    500  500 
2    742  723 
3    818  709 
4    392  777 
5    589  114 
6    201  817 
7    815  947 
8    252  698 
9    788  740 
10   21   155 
11   448  882 
12   55   873 
13   598  658 
14   802  707 
15   41   607 
16   599  126 
17   183  130 
18   867  70  
19   232  956 
20   838  529 
21   148  292 
22   853  141 
23   928  634 
24   168  831 
25   66   781 
26   194  803 
27   170  886 
28   751  685 
29   343  689 
30   822  731 
31   154  61  
32   81   107 
33   803  464 
34   815  16  
35   195  849 
36   142  133 
37   454  747 
38   149  290 
39   611  703 
40   62   493 
41   889  873 
42   48   844 
43   912  575 
44   679  684 
45   607  335 
46   460  102 
47   60   975 
48   347  677 
49   163  2   
50   60   245 
51   388  899 
52   657  109 
53   292  673 
54   661  877 
55   857  887 
56   325  935 
57   367  863 
58   89   705 
59   709  699 
60   890  688 
61   236  259 
62   584  441 
63   611  345 
64   703  882 
65   817  669 
66   243  913 
67   424  725 
68   767  90  
69   339  747 
70   956  663 
71   144  765 
72   994  225 
73   141  262 
74   175  999 
75   250  112 
76   179  990 
77   210  846 
78   224  678 
79   158  851 
80   348  89  
81   886  931 
82   341  571 
83   383  179 
84   426  204 
85   737  687 
86   448  806 
87   209  684 
88   417  833 
89   78   817 
90   153  555 
91   647  655 
92   138  861 
93   158  72  
94   366  396 
95   215  718 
96   176  914 
97   303  186 
98   387  109 
99   712  735 
100  318  771 
101  360  721 
DEMAND_SECTION
1    0   
2    1   
3    1   
4    1   
5    1   
6    1   
7    1   
8    1   
9    1   
10   1   
11   1   
12   1   
13   1   
14   1   
15   1   
16   1   
17   1   
18   1   
19   1   
20   1   
21   1   
22   1   
23   1   
24   1   
25   1   
26   1   
27   1   
28   1   
29   1   
30   1   
31   1   
32   1   
33   1   
34   1   
35   1   
36   1   
37   1   
38   1   
39   1   
40   1   
41   1   
42   1   
43   1   
44   1   
45   1   
46   1   
47   1   
48   1   
49   1   
50   1   
51   1   
52   1   
53   1   
54   1   
55   1   
56   1   
57   1   
58   1   
59   1   
60   1   
61   1   
62   1   
63   1   
64   1   
65   1   
66   1   
67   1   
68   1   
69   1   
70   1   
71   1   
72   1   
73   1   
74   1   
75   1   
76   1   
77   1   
78   1   
79   1   
80   1   
81   1   
82   1   
83   1   
84   1   
85   1   
86   1   
87   1   
88   1   
89   1   
90   1   
91   1   
92   1   
93   1   
94   1   
95   1   
96   1   
97   1   
98   1   
99   1   
100  1   
101  1   
DEPOT_SECTION
1
-1
EOF
