data/CVRPLIB/Vrp-Set-XML100/solutions/XML100_2316_06.sol
Route #1: 89 39 14 57 24 88 41 11 46 73 75 18 65 95 26 91 78 23 34 76 5 25 70 94 86 77 7 52
Route #2: 83 82 45 97 79 96 74 16 35 92 30 48 31 9 49 72 20 37 60 93
Route #3: 61 62 44 15 4 51 67 33 17 21 71 32 19 42 22 69 59 64 2 13 27 84 58 43 90
Route #4: 12 38 98 1 8 29 40 54 80 6 63 53 10 50 55 56 87 85 36 66 3 99 68 100 28 47 81
Cost 8211
